c ren 1 -> 1
c ren 2 -> 2
c ren 3 -> 3
c ren 7 -> 4
c ren 8 -> 5
c ren 9 -> 6
c ren 13 -> 7
c ren 14 -> 8
c ren 16 -> 9
c ren 19 -> 10
c ren 20 -> 11
c ren 22 -> 12
c ren 25 -> 13
c ren 27 -> 14
c ren 30 -> 15
c ren 31 -> 16
c ren 33 -> 17
c ren 36 -> 18
c ren 38 -> 19
c ren 41 -> 20
c ren 47 -> 21
c ren 50 -> 22
c ren 52 -> 23
c ren 55 -> 24
c ren 57 -> 25
c ren 60 -> 26
c ren 61 -> 27
c ren 63 -> 28
c ren 66 -> 29
c ren 71 -> 30
c ren 76 -> 31
c ren 77 -> 32
c ren 82 -> 33
c ren 86 -> 34
c ren 87 -> 35
c ren 91 -> 36
c ren 94 -> 37
c ren 96 -> 38
c ren 99 -> 39
c ren 101 -> 40
c ren 104 -> 41
c ren 108 -> 42
c ren 111 -> 43
c ren 113 -> 44
c ren 116 -> 45
c ren 118 -> 46
c ren 121 -> 47
c ren 122 -> 48
c ren 123 -> 49
c ren 126 -> 50
c ren 128 -> 51
c ren 131 -> 52
c ren 133 -> 53
c ren 136 -> 54
c ren 138 -> 55
c ren 141 -> 56
c ren 145 -> 57
c ren 148 -> 58
c ren 150 -> 59
c ren 153 -> 60
c ren 158 -> 61
c ren 165 -> 62
c ren 169 -> 63
c ren 170 -> 64
c ren 172 -> 65
c ren 175 -> 66
c ren 179 -> 67
c ren 182 -> 68
c ren 184 -> 69
c ren 187 -> 70
c ren 189 -> 71
c ren 192 -> 72
c ren 196 -> 73
c ren 199 -> 74
c ren 201 -> 75
c ren 204 -> 76
c ren 208 -> 77
c ren 211 -> 78
c ren 213 -> 79
c ren 216 -> 80
c ren 218 -> 81
c ren 221 -> 82
c ren 225 -> 83
c ren 228 -> 84
c ren 230 -> 85
c ren 233 -> 86
c ren 237 -> 87
c ren 240 -> 88
c ren 241 -> 89
c ren 245 -> 90
c ren 252 -> 91
c ren 255 -> 92
c ren 256 -> 93
c ren 257 -> 94
c ren 260 -> 95
c ren 262 -> 96
c ren 265 -> 97
c ren 266 -> 98
c ren 269 -> 99
c ren 270 -> 100
c ren 273 -> 101
c ren 274 -> 102
c ren 277 -> 103
c ren 279 -> 104
c ren 282 -> 105
c ren 286 -> 106
c ren 289 -> 107
c ren 292 -> 108
c ren 295 -> 109
c ren 297 -> 110
c ren 300 -> 111
c ren 301 -> 112
c ren 304 -> 113
c ren 305 -> 114
c ren 308 -> 115
c ren 309 -> 116
c ren 312 -> 117
c ren 313 -> 118
c ren 316 -> 119
c ren 318 -> 120
c ren 321 -> 121
c ren 324 -> 122
c ren 327 -> 123
c ren 329 -> 124
c ren 332 -> 125
c ren 334 -> 126
c ren 337 -> 127
c ren 338 -> 128
c ren 341 -> 129
c ren 345 -> 130
c ren 348 -> 131
c ren 349 -> 132
c ren 352 -> 133
c ren 353 -> 134
c ren 355 -> 135
c ren 358 -> 136
c ren 362 -> 137
c ren 366 -> 138
c ren 370 -> 139
c ren 374 -> 140
c ren 375 -> 141
c ren 379 -> 142
c ren 382 -> 143
c ren 384 -> 144
c ren 387 -> 145
c ren 389 -> 146
c ren 392 -> 147
c ren 396 -> 148
c ren 399 -> 149
c ren 401 -> 150
c ren 404 -> 151
c ren 406 -> 152
c ren 409 -> 153
c ren 413 -> 154
c ren 416 -> 155
c ren 417 -> 156
c ren 420 -> 157
c ren 421 -> 158
c ren 424 -> 159
c ren 426 -> 160
c ren 429 -> 161
c ren 434 -> 162
c ren 435 -> 163
c ren 437 -> 164
c ren 440 -> 165
c ren 447 -> 166
c ren 452 -> 167
c ren 456 -> 168
c ren 457 -> 169
c ren 461 -> 170
c ren 464 -> 171
c ren 465 -> 172
c ren 468 -> 173
c ren 472 -> 174
c ren 475 -> 175
c ren 477 -> 176
c ren 480 -> 177
c ren 481 -> 178
c ren 484 -> 179
c ren 488 -> 180
c ren 491 -> 181
c ren 492 -> 182
c ren 517 -> 183
p cnf 183 808
a 1 2 3 4 5 6 8 10 11 13 15 16 18 20 22 24 26 27 29 30 31 32 33 35 37 39 41 43 45 47 50 52 54 56 58 60 61 62 64 66 68 70 72 74 76 78 80 82 84 86 88 90 91 93 95 97 99 101 103 105 107 109 111 113 115 117 119 121 123 125 127 129 131 133 136 137 138 139 141 143 145 147 149 151 153 155 157 159 161 162 165 166 167 169 171 173 175 177 179 181 0
d 134 127 131 0
d 163 159 161 0
d 183 177 181 0
e 7 9 12 14 17 19 21 23 25 28 34 36 38 40 42 44 46 48 49 51 53 55 57 59 63 65 67 69 71 73 75 77 79 81 83 85 87 89 92 94 96 98 100 102 104 106 108 110 112 114 116 118 120 122 124 126 128 130 132 135 140 142 144 146 148 150 152 154 156 158 160 164 168 170 172 174 176 178 180 182 0
2 63 -65 -67 -69 -71 -73 -75 -77 78 -79 -81 82 -83 -85 -87 88 89 90 91 -92 0
-2 -3 63 -65 -67 68 -69 -71 -73 -75 -77 -79 -81 82 -83 -85 -87 88 89 90 -91 -92 0
3 -91 92 0
-2 -3 63 -65 -67 -69 -71 -73 -75 -77 78 -79 80 -81 -83 -85 -87 88 89 90 -91 -92 0
-1 -2 -3 4 5 -7 0
-2 -3 63 -65 -67 -69 -71 -73 -75 -77 78 -79 80 -81 -83 -85 -87 -88 -89 90 -91 -92 0
3 63 -65 -67 68 -69 -71 -73 -75 -77 -79 -81 82 -83 -85 -87 88 89 90 91 -92 0
5 -93 -94 0
-5 -6 -93 94 0
2 63 -65 -67 68 -69 -71 -73 -75 -77 -79 -81 82 -83 -85 -87 -88 -89 90 91 -92 0
6 -93 -94 0
4 -5 -6 7 0
5 93 94 0
2 63 -65 -67 68 -69 -71 -73 -75 -77 -79 -81 82 -83 -85 -87 88 89 90 91 -92 0
6 93 94 0
-4 6 7 0
1 4 -8 -9 0
-1 -4 8 9 0
1 -4 8 -9 0
-1 4 -8 9 0
-1 4 8 -9 0
-1 -4 -8 -9 0
1 4 8 9 0
1 -4 -8 9 0
9 34 0
-3 -5 -6 7 -9 -11 -12 -14 -16 -17 -19 -21 -23 -25 -28 -29 -30 -31 -32 33 -34 0
2 -10 -12 0
-2 -10 -11 12 0
11 97 98 0
-2 10 -11 -12 0
2 97 98 0
2 -97 -98 0
-2 -11 -97 98 0
12 34 0
-3 -5 6 7 -9 -11 -12 -14 -16 -17 -19 -21 -23 -25 -28 -29 -30 31 -33 -34 0
3 -13 -14 0
-3 -5 -13 14 0
5 99 100 0
-3 -5 13 -14 0
3 99 100 0
3 -99 -100 0
-3 -5 -99 100 0
14 34 0
-3 -5 7 -9 -11 -12 -14 -16 -17 -19 -21 -23 -25 -28 -29 -30 31 32 -33 -34 0
6 -15 -17 0
-6 -15 -16 17 0
16 101 102 0
-6 15 -16 -17 0
6 101 102 0
6 -101 -102 0
-6 -16 -101 102 0
17 34 0
3 -5 -6 7 -9 -11 -12 -14 -17 -19 -21 -23 -25 -28 -29 30 -31 -32 -33 -34 0
13 15 -18 -19 0
-13 -15 18 19 0
13 -15 18 -19 0
-13 15 -18 19 0
-13 15 18 -19 0
-13 -15 -18 -19 0
13 15 18 19 0
13 -15 -18 19 0
19 34 0
3 -5 6 7 -9 -11 -12 -14 -17 -19 -21 -23 -25 -28 -29 30 31 33 -34 0
1 -20 -21 0
4 20 21 0
-1 -4 -20 21 0
4 -20 -21 0
1 20 21 0
-1 -4 20 -21 0
21 34 0
3 -5 7 -9 -11 -12 -14 -17 -19 -21 -23 -25 -28 -29 30 31 32 33 -34 0
18 20 -22 -23 0
-18 -20 22 23 0
18 -20 22 -23 0
-18 20 -22 23 0
-18 20 22 -23 0
-18 -20 -22 -23 0
18 20 22 23 0
18 -20 -22 23 0
23 34 0
-5 -6 7 -9 -11 -12 -14 16 -17 -19 -21 -23 -25 -28 -29 30 -31 -32 -33 -34 0
10 22 -24 -25 0
-10 -22 24 25 0
10 -22 24 -25 0
-10 22 -24 25 0
-10 22 24 -25 0
-10 -22 -24 -25 0
10 22 24 25 0
10 -22 -24 25 0
25 34 0
-5 6 7 -9 -11 -12 -14 16 -17 -19 -21 -23 -25 -28 -29 30 31 33 -34 0
2 -26 -28 0
-2 -26 -27 28 0
27 111 112 0
-2 26 -27 -28 0
2 111 112 0
2 -111 -112 0
-2 -27 -111 112 0
28 34 0
-5 7 -9 -11 -12 -14 16 -17 -19 -21 -23 -25 -28 -29 30 31 32 33 -34 0
5 -113 -114 0
-5 -11 -113 114 0
-7 34 0
3 5 -6 7 -9 -12 -14 -17 -19 -21 -23 -25 -28 29 30 -31 -32 -33 -34 0
-3 5 6 7 -9 -12 -14 -16 -17 -19 -21 -23 -25 -28 29 -30 31 -33 -34 0
-6 7 -9 11 -12 -14 16 -17 -19 -21 -23 -25 -28 29 30 -31 -32 -33 -34 0
3 5 6 7 -9 -12 -14 -17 -19 -21 -23 -25 -28 29 30 31 33 -34 0
-3 5 7 -9 -12 -14 -16 -17 -19 -21 -23 -25 -28 29 -30 31 32 -33 -34 0
3 5 7 -9 -12 -14 -17 -19 -21 -23 -25 -28 29 30 31 32 33 -34 0
7 -9 11 -12 -14 16 -17 -19 -21 -23 -25 -28 29 30 31 32 33 -34 0
3 -115 -116 0
-3 -16 -115 116 0
3 6 7 -9 11 -12 -14 -17 -19 -21 -23 -25 -28 29 30 31 33 -34 0
-3 -16 30 34 0
5 6 7 -9 -12 -14 16 -17 -19 -21 -23 -25 -28 29 30 31 33 -34 0
16 -30 34 0
3 -6 7 -9 11 -12 -14 -17 -19 -21 -23 -25 -28 29 30 -31 -32 -33 -34 0
5 7 -9 -12 -14 16 -17 -19 -21 -23 -25 -28 29 30 31 32 33 -34 0
3 -30 34 0
11 113 114 0
6 -117 -118 0
-6 -32 -117 118 0
27 -111 -112 0
6 -31 34 0
16 -115 -116 0
11 -113 -114 0
32 117 118 0
-6 31 -32 34 0
32 -117 -118 0
30 31 -33 34 0
-31 32 34 0
30 -31 33 34 0
6 117 118 0
5 -29 34 0
-30 31 33 34 0
5 -99 -100 0
6 7 -9 11 -12 -14 16 -17 -19 -21 -23 -25 -28 29 30 31 33 -34 0
5 113 114 0
-30 -31 -33 34 0
11 -97 -98 0
13 18 -35 -36 0
-18 -20 -35 36 0
15 20 35 36 0
15 18 -35 -36 0
-13 -15 -35 36 0
15 20 -35 -36 0
13 18 35 36 0
13 20 35 36 0
16 -101 -102 0
-13 -15 35 -36 0
13 20 -35 -36 0
-18 -20 35 -36 0
15 18 35 36 0
36 63 0
-29 34 -36 -37 -38 -40 -42 -44 -46 -49 -50 -51 -53 -55 -57 58 -59 -60 -61 62 -63 0
33 35 -37 -38 0
-33 -35 37 38 0
33 -35 37 -38 0
-33 35 -37 38 0
-33 35 37 -38 0
-33 -35 -37 -38 0
33 35 37 38 0
33 -35 -37 38 0
38 63 0
34 -36 -38 -39 -40 -41 -42 -44 -46 -49 -50 -51 -53 -55 -57 58 -59 -60 -61 62 -63 0
29 37 -39 -40 0
-29 -37 39 40 0
29 -37 39 -40 0
-29 37 -39 40 0
-29 37 39 -40 0
-29 -37 -39 -40 0
29 37 39 40 0
29 -37 -39 40 0
40 63 0
29 34 -36 -38 39 -40 -42 -44 -46 -49 -50 -51 -53 -55 -57 58 -59 -60 61 -62 -63 0
10 -41 -42 0
22 41 42 0
22 -41 -42 0
-10 -22 -41 42 0
1 3 4 5 -7 0
10 41 42 0
1 3 -4 -5 -6 -7 0
-10 -22 41 -42 0
42 63 0
34 -36 37 -38 39 -40 -42 -44 -46 -49 -50 -51 -53 -55 -57 58 -59 -60 61 -62 -63 0
39 41 -43 -44 0
-39 -41 43 44 0
39 -41 43 -44 0
-39 41 -43 44 0
-39 41 43 -44 0
-39 -41 -43 -44 0
39 41 43 44 0
39 -41 -43 44 0
44 63 0
29 34 -36 -38 -40 41 -42 -44 -46 -49 -50 -51 -53 -55 -57 58 -59 -60 61 -62 -63 0
26 43 -45 -46 0
-26 -43 45 46 0
26 -43 45 -46 0
-26 43 -45 46 0
-26 43 45 -46 0
-26 -43 -45 -46 0
26 43 45 46 0
26 -43 -45 46 0
46 63 0
34 -36 37 -38 -40 41 -42 -44 -46 -49 -50 -51 -53 -55 -57 58 -59 -60 61 -62 -63 0
5 -48 0
27 -48 0
-5 -27 48 0
-47 -48 49 0
47 48 49 0
-47 48 -49 0
47 -48 -49 0
49 63 0
-29 34 -36 -37 -38 -40 -42 -44 -46 -49 50 -51 -53 -55 -57 -58 -59 -60 -61 62 -63 0
11 -50 -51 0
-11 -16 -50 51 0
16 -137 140 0
-11 -16 50 -51 0
11 -137 140 0
-3 11 -32 -48 92 -94 -96 -98 -100 -102 -104 -106 -108 -110 -112 -114 -116 -118 -120 -122 -124 -126 -128 -130 -132 -135 -136 137 -138 -139 -140 0
-11 -16 137 140 0
51 63 0
34 -36 -38 -39 -40 -41 -42 -44 -46 -49 50 -51 -53 -55 -57 -58 -59 -60 -61 62 -63 0
3 -52 -53 0
-3 -32 -52 53 0
32 -138 140 0
-3 -32 52 -53 0
3 -138 140 0
3 -11 -16 -48 92 -94 -96 -98 -100 -102 -104 -106 -108 -110 -112 -114 -116 -118 -120 -122 -124 -126 -128 -130 -132 -135 -136 -137 138 139 -140 0
-3 -32 138 140 0
53 63 0
29 34 -36 -38 -40 -42 -44 -46 -49 50 -51 -53 -55 -57 -58 -59 -60 61 -62 -63 0
52 -54 -55 0
-52 -54 55 0
-52 54 -55 0
52 54 55 0
55 63 0
34 -36 37 -38 39 -40 -42 -44 -46 -49 50 -51 -53 -55 -57 -58 -59 -60 61 -62 -63 0
30 33 -56 -57 0
-33 -35 -56 57 0
31 35 56 57 0
31 33 -56 -57 0
-30 -31 -56 57 0
31 35 -56 -57 0
30 35 56 57 0
-30 -31 56 -57 0
30 35 -56 -57 0
-33 -35 56 -57 0
31 33 56 57 0
57 63 0
1 3 4 6 -7 0
54 56 -58 -59 0
-54 -56 58 59 0
54 -56 58 -59 0
-54 56 -58 59 0
-54 56 58 -59 0
-54 -56 -58 -59 0
54 56 58 59 0
54 -56 -58 59 0
59 63 0
34 -36 37 -38 -40 41 -42 -44 -46 -49 50 -51 -53 -55 -57 -58 -59 -60 61 -62 -63 0
11 -29 34 0
29 34 -36 -38 39 -40 -42 -44 -46 -49 50 -51 -53 -55 -57 58 -59 60 61 62 -63 0
34 -36 -38 -39 -40 -41 -42 -44 -46 -49 50 -51 -53 -55 -57 58 -59 60 -61 -62 -63 0
-29 34 -36 -37 -38 -40 -42 -44 -46 -49 -50 -51 -53 -55 -57 -58 -59 60 -61 -62 -63 0
34 -36 37 -38 39 -40 -42 -44 -46 -49 -50 -51 -53 -55 -57 -58 -59 60 61 62 -63 0
34 -36 -38 -39 -40 -41 -42 -44 -46 -49 -50 -51 -53 -55 -57 -58 -59 60 -61 -62 -63 0
-50 -58 -60 63 0
29 34 -36 -38 -40 41 -42 -44 -46 -49 -50 -51 -53 -55 -57 -58 -59 60 61 62 -63 0
29 34 -36 -38 39 -40 -42 -44 -46 -49 -50 -51 -53 -55 -57 -58 -59 60 61 62 -63 0
34 -36 37 -38 -40 41 -42 -44 -46 -49 -50 -51 -53 -55 -57 -58 -59 60 61 62 -63 0
-34 63 0
29 34 -36 -38 -40 41 -42 -44 -46 -49 50 -51 -53 -55 -57 58 -59 60 61 62 -63 0
29 41 -61 63 0
-50 58 60 63 0
-39 -41 61 63 0
29 39 -61 63 0
37 39 -61 63 0
50 -58 60 63 0
37 41 -61 63 0
-29 34 -36 -37 -38 -40 -42 -44 -46 -49 50 -51 -53 -55 -57 58 -59 60 -61 -62 -63 0
34 -36 37 -38 39 -40 -42 -44 -46 -49 50 -51 -53 -55 -57 58 -59 60 61 62 -63 0
34 -36 37 -38 -40 41 -42 -44 -46 -49 50 -51 -53 -55 -57 58 -59 60 61 62 -63 0
60 61 -62 63 0
60 -61 62 63 0
-29 -37 61 63 0
-60 61 62 63 0
-60 -61 -62 63 0
47 62 -64 -65 0
-47 -62 64 65 0
47 -62 64 -65 0
-47 62 -64 65 0
-47 62 64 -65 0
-47 -62 -64 -65 0
47 62 64 65 0
47 -62 -64 65 0
65 92 0
-2 -3 63 -65 -67 -69 -71 -73 -75 -77 -79 -80 -81 -82 -83 -85 -87 -88 -89 -90 -91 -92 0
26 -66 -67 0
43 66 67 0
43 -66 -67 0
-26 -43 -66 67 0
3 63 -65 -67 -68 -69 -71 -73 -75 -77 -78 -79 -81 -83 -85 -87 88 89 -90 91 -92 0
26 66 67 0
3 63 -65 -67 -69 -71 -73 -75 -77 78 -79 -81 82 -83 -85 -87 -88 -89 90 91 -92 0
-26 -43 66 -67 0
3 63 -65 -67 68 -69 -71 -73 -75 -77 -79 80 -81 -83 -85 -87 88 89 90 91 -92 0
3 63 -65 -67 -69 -71 -73 -75 -77 -79 -80 -81 -82 -83 -85 -87 88 89 -90 91 -92 0
67 92 0
-1 2 7 0
16 -68 -69 0
-16 -27 -68 69 0
27 155 156 0
-16 -27 68 -69 0
16 155 156 0
16 -155 -156 0
-16 -27 -155 156 0
69 92 0
1 -2 -3 7 0
11 -70 -71 0
-11 -32 -70 71 0
32 157 158 0
-11 -32 70 -71 0
11 157 158 0
11 -157 -158 0
-11 -32 -157 158 0
71 92 0
2 63 -65 -67 -69 -71 -73 -75 -77 78 -79 80 -81 -83 -85 -87 -88 -89 90 91 -92 0
54 -72 -73 0
-54 -56 -72 73 0
56 72 73 0
3 63 -65 -67 68 -69 -71 -73 -75 -77 -79 -81 82 -83 -85 -87 -88 -89 90 91 -92 0
3 63 -65 -67 -69 -71 -73 -75 -77 -79 -80 -81 -82 -83 -85 -87 -88 -89 -90 91 -92 0
54 72 73 0
3 63 -65 -67 -69 -71 -73 -75 -77 78 -79 80 -81 -83 -85 -87 -88 -89 90 91 -92 0
56 -72 -73 0
-54 -56 72 -73 0
-1 3 7 0
73 92 0
70 72 -74 -75 0
-70 -72 74 75 0
70 -72 74 -75 0
-70 72 -74 75 0
-70 72 74 -75 0
-70 -72 -74 -75 0
70 72 74 75 0
70 -72 -74 75 0
75 92 0
50 60 -76 -77 0
-60 -61 -76 77 0
58 61 76 77 0
58 60 -76 -77 0
-50 -58 -76 77 0
58 61 -76 -77 0
50 60 76 77 0
50 61 76 77 0
-50 -58 76 -77 0
50 61 -76 -77 0
-60 -61 76 -77 0
77 92 0
-2 -3 63 -65 -67 68 -69 -71 -73 -75 -77 -79 -81 82 -83 -85 -87 -88 -89 90 -91 -92 0
74 76 -78 -79 0
-74 -76 78 79 0
74 -76 78 -79 0
-74 76 -78 79 0
-74 76 78 -79 0
-74 -76 -78 -79 0
74 76 78 79 0
74 -76 -78 79 0
79 92 0
2 63 -65 -67 -69 -71 -73 -75 -77 78 -79 -81 82 -83 -85 -87 -88 -89 90 91 -92 0
68 78 -80 -81 0
-68 -78 80 81 0
68 -78 80 -81 0
-68 78 -80 81 0
-68 78 80 -81 0
-68 -78 -80 -81 0
68 78 80 81 0
68 -78 -80 81 0
81 92 0
-2 -3 63 -65 -67 -69 -71 -73 -75 -77 78 -79 -81 82 -83 -85 -87 -88 -89 90 -91 -92 0
47 64 -82 -83 0
-64 -66 -82 83 0
62 66 82 83 0
62 64 -82 -83 0
-47 -62 -82 83 0
62 66 -82 -83 0
47 64 82 83 0
47 66 82 83 0
-47 -62 82 -83 0
47 66 -82 -83 0
-64 -66 82 -83 0
83 92 0
2 63 -65 -67 -68 -69 -71 -73 -75 -77 -78 -79 -81 -83 -85 -87 88 89 -90 91 -92 0
27 -84 -85 0
-27 -32 -84 85 0
32 171 172 0
-27 -32 84 -85 0
27 171 172 0
-27 -32 -171 172 0
85 92 0
-2 -3 63 -65 -67 -68 -69 -71 -73 -75 -77 -78 -79 -81 -83 -85 -87 88 89 -90 -91 -92 0
70 74 -86 -87 0
-74 -76 -86 87 0
72 76 86 87 0
72 74 -86 -87 0
-70 -72 -86 87 0
72 76 -86 -87 0
70 74 86 87 0
70 76 86 87 0
-70 -72 86 -87 0
70 76 -86 -87 0
-74 -76 86 -87 0
87 92 0
2 63 -65 -67 -69 -71 -73 -75 -77 -79 -80 -81 -82 -83 -85 -87 88 89 -90 91 -92 0
-84 86 89 0
84 -86 89 0
-84 -86 -89 0
84 86 -89 0
-1 -2 -3 4 6 -7 0
-2 -3 63 -65 -67 -69 -71 -73 -75 -77 -79 -80 -81 -82 -83 -85 -87 88 89 -90 -91 -92 0
32 -157 -158 0
1 2 4 6 -7 0
2 63 -65 -67 68 -69 -71 -73 -75 -77 -79 80 -81 -83 -85 -87 88 89 90 91 -92 0
-2 -3 91 92 0
68 82 -90 92 0
2 63 -65 -67 -68 -69 -71 -73 -75 -77 -78 -79 -81 -83 -85 -87 -88 -89 -90 91 -92 0
1 2 -4 -5 -6 -7 0
-80 -82 90 92 0
-63 92 0
68 80 -90 92 0
78 80 -90 92 0
2 -91 92 0
27 -155 -156 0
50 58 -60 63 0
-1 -2 -3 -4 -5 -6 -7 0
-2 -3 63 -65 -67 -69 -71 -73 -75 -77 78 -79 -81 82 -83 -85 -87 88 89 90 -91 -92 0
78 82 -90 92 0
2 63 -65 -67 -69 -71 -73 -75 -77 -79 -80 -81 -82 -83 -85 -87 -88 -89 -90 91 -92 0
-68 -78 90 92 0
-2 -3 63 -65 -67 -68 -69 -71 -73 -75 -77 -78 -79 -81 -83 -85 -87 -88 -89 -90 -91 -92 0
-5 -6 93 -94 0
1 2 4 5 -7 0
-4 5 7 0
3 63 -65 -67 -69 -71 -73 -75 -77 78 -79 -81 82 -83 -85 -87 88 89 90 91 -92 0
94 140 0
3 -11 -16 48 92 -94 -96 -98 -100 -102 -104 -106 -108 -110 -112 -114 -116 -118 -120 -122 -124 -126 -128 -130 -132 -135 136 -137 138 139 -140 0
91 93 -95 -96 0
-91 -93 95 96 0
91 -93 95 -96 0
-91 93 -95 96 0
-91 93 95 -96 0
-91 -93 -95 -96 0
91 93 95 96 0
91 -93 -95 96 0
96 140 0
-88 89 92 0
-2 -11 97 -98 0
10 11 12 0
-10 11 -12 0
2 10 12 0
98 140 0
-3 -5 99 -100 0
5 13 14 0
5 -13 -14 0
3 13 14 0
100 140 0
11 32 -48 92 -94 -96 -98 -100 -102 -104 -106 -108 -110 -112 -114 -116 -118 -120 -122 -124 -126 -128 -130 -132 -135 -136 137 138 139 -140 0
-6 -16 101 -102 0
15 16 17 0
-15 16 -17 0
6 15 17 0
102 140 0
3 11 -48 92 -94 -96 -98 -100 -102 -104 -106 -108 -110 -112 -114 -116 -118 -120 -122 -124 -126 -128 -130 -132 -135 -136 137 138 139 -140 0
99 101 -103 -104 0
-99 -101 103 104 0
99 -101 103 -104 0
-99 101 -103 104 0
-99 101 103 -104 0
-99 -101 -103 -104 0
99 101 103 104 0
99 -101 -103 104 0
104 140 0
91 -105 -106 0
93 -105 -106 0
-91 -93 -105 106 0
16 32 -48 92 -94 -96 -98 -100 -102 -104 -106 -108 -110 -112 -114 -116 -118 -120 -122 -124 -126 -128 -130 -132 -135 -136 137 138 139 -140 0
91 105 106 0
16 32 48 92 -94 -96 -98 -100 -102 -104 -106 -108 -110 -112 -114 -116 -118 -120 -122 -124 -126 -128 -130 -132 -135 136 137 138 139 -140 0
-91 -93 105 -106 0
3 63 -65 -67 -68 -69 -71 -73 -75 -77 -78 -79 -81 -83 -85 -87 -88 -89 -90 91 -92 0
93 105 106 0
106 140 0
103 107 -108 0
-103 -105 107 108 0
99 105 121 122 0
-103 -105 -107 -108 0
-103 -105 -121 122 0
99 103 -121 -122 0
108 140 0
32 -52 -53 0
101 105 121 122 0
97 107 -109 -110 0
-97 -107 109 110 0
97 -107 109 -110 0
-97 107 -109 110 0
-97 107 109 -110 0
-97 -107 -109 -110 0
97 107 109 110 0
97 -107 -109 110 0
110 140 0
3 11 48 92 -94 -96 -98 -100 -102 -104 -106 -108 -110 -112 -114 -116 -118 -120 -122 -124 -126 -128 -130 -132 -135 136 137 138 139 -140 0
-2 -27 111 -112 0
26 27 28 0
-26 27 -28 0
2 26 28 0
112 140 0
-5 -11 113 -114 0
-3 -6 7 -9 11 -12 -14 -16 -17 -19 -21 -23 -25 -28 29 -30 -31 -32 33 -34 0
-3 6 7 -9 11 -12 -14 -16 -17 -19 -21 -23 -25 -28 29 -30 31 -33 -34 0
-3 5 -6 7 -9 -12 -14 -16 -17 -19 -21 -23 -25 -28 29 -30 -31 -32 33 -34 0
114 140 0
-3 -16 115 -116 0
-5 -11 29 34 0
-3 7 -9 11 -12 -14 -16 -17 -19 -21 -23 -25 -28 29 -30 31 32 -33 -34 0
5 -6 7 -9 -12 -14 16 -17 -19 -21 -23 -25 -28 29 30 -31 -32 -33 -34 0
116 140 0
11 32 48 92 -94 -96 -98 -100 -102 -104 -106 -108 -110 -112 -114 -116 -118 -120 -122 -124 -126 -128 -130 -132 -135 136 137 138 139 -140 0
-6 -32 117 -118 0
3 115 116 0
3 7 -9 11 -12 -14 -17 -19 -21 -23 -25 -28 29 30 31 32 33 -34 0
16 115 116 0
118 140 0
3 52 53 0
115 117 -119 -120 0
-115 -117 119 120 0
115 -117 119 -120 0
-115 117 -119 120 0
-115 117 119 -120 0
-115 -117 -119 -120 0
115 117 119 120 0
115 -117 -119 120 0
120 140 0
101 103 -121 -122 0
-99 -101 -121 122 0
103 -107 108 0
105 -107 108 0
-99 -101 121 -122 0
105 107 -108 0
-103 -105 121 -122 0
101 103 121 122 0
122 140 0
119 121 -123 -124 0
-119 -121 123 124 0
119 -121 123 -124 0
-119 121 -123 124 0
-119 121 123 -124 0
-119 -121 -123 -124 0
119 121 123 124 0
119 -121 -123 124 0
124 140 0
32 52 53 0
113 123 -125 -126 0
-113 -123 125 126 0
113 -123 125 -126 0
-113 123 -125 126 0
-113 123 125 -126 0
-113 -123 -125 -126 0
113 123 125 126 0
113 -123 -125 126 0
126 140 0
-92 140 0
-125 -127 128 0
125 127 128 0
125 -127 -128 0
-125 127 -128 0
128 140 0
97 -129 -130 0
107 129 130 0
107 -129 -130 0
-97 -107 -129 130 0
-3 16 -32 48 92 -94 -96 -98 -100 -102 -104 -106 -108 -110 -112 -114 -116 -118 -120 -122 -124 -126 -128 -130 -132 -135 136 137 -138 -139 -140 0
97 129 130 0
-3 16 -32 -48 92 -94 -96 -98 -100 -102 -104 -106 -108 -110 -112 -114 -116 -118 -120 -122 -124 -126 -128 -130 -132 -135 -136 137 -138 -139 -140 0
-97 -107 129 -130 0
3 16 -48 92 -94 -96 -98 -100 -102 -104 -106 -108 -110 -112 -114 -116 -118 -120 -122 -124 -126 -128 -130 -132 -135 -136 137 138 139 -140 0
3 16 48 92 -94 -96 -98 -100 -102 -104 -106 -108 -110 -112 -114 -116 -118 -120 -122 -124 -126 -128 -130 -132 -135 136 137 138 139 -140 0
130 140 0
-129 -131 132 0
129 131 132 0
129 -131 -132 0
-129 131 -132 0
132 140 0
88 -89 92 0
111 -133 134 -135 0
-111 133 -134 135 0
111 133 -134 -135 0
-111 -133 134 135 0
-111 133 134 -135 0
-111 -133 -134 -135 0
111 133 134 135 0
111 -133 -134 135 0
135 140 0
99 105 -121 -122 0
101 105 -121 -122 0
-3 11 -32 48 92 -94 -96 -98 -100 -102 -104 -106 -108 -110 -112 -114 -116 -118 -120 -122 -124 -126 -128 -130 -132 -135 136 137 -138 -139 -140 0
-11 -16 32 48 92 -94 -96 -98 -100 -102 -104 -106 -108 -110 -112 -114 -116 -118 -120 -122 -124 -126 -128 -130 -132 -135 136 -137 138 139 -140 0
138 -139 140 0
-48 136 140 0
-3 -11 -16 -32 48 92 -94 -96 -98 -100 -102 -104 -106 -108 -110 -112 -114 -116 -118 -120 -122 -124 -126 -128 -130 -132 -135 136 -137 -138 -139 -140 0
-3 -11 -16 -32 -48 92 -94 -96 -98 -100 -102 -104 -106 -108 -110 -112 -114 -116 -118 -120 -122 -124 -126 -128 -130 -132 -135 -136 -137 -138 -139 -140 0
-138 139 140 0
48 -136 140 0
115 119 -141 -142 0
-119 -121 -141 142 0
117 121 141 142 0
117 119 -141 -142 0
-115 -117 -141 142 0
117 121 -141 -142 0
115 119 141 142 0
115 121 141 142 0
-115 -117 141 -142 0
115 121 -141 -142 0
-119 -121 141 -142 0
117 119 141 142 0
142 168 0
-137 140 -142 -143 -144 -146 -148 -150 -152 -154 155 -156 -158 -160 161 162 -164 -165 -166 -167 -168 0
139 141 -143 -144 0
-139 -141 143 144 0
139 -141 143 -144 0
-139 141 -143 144 0
-139 141 143 -144 0
-139 -141 -143 -144 0
139 141 143 144 0
139 -141 -143 144 0
144 168 0
-137 140 -142 -143 -144 -146 -148 -150 -152 -154 -155 -156 -158 -160 161 162 -164 -165 -166 167 -168 0
137 143 -145 -146 0
-137 -143 145 146 0
137 -143 145 -146 0
-137 143 -145 146 0
-137 143 145 -146 0
-137 -143 -145 -146 0
137 143 145 146 0
137 -143 -145 146 0
146 168 0
-137 140 -142 -143 -144 -146 -148 -150 -152 -154 -155 -156 -158 -160 161 -162 -164 -165 166 -167 -168 0
113 125 -147 -148 0
-125 -129 -147 148 0
123 129 147 148 0
123 125 -147 -148 0
-113 -123 -147 148 0
123 129 -147 -148 0
113 125 147 148 0
113 129 147 148 0
-113 -123 147 -148 0
113 129 -147 -148 0
-125 -129 147 -148 0
123 125 147 148 0
148 168 0
-137 140 -142 -143 -144 -146 -148 -150 -152 -154 155 -156 -158 -160 161 -162 -164 -165 166 167 -168 0
145 147 -149 -150 0
-145 -147 149 150 0
145 -147 149 -150 0
-145 147 -149 150 0
-145 147 149 -150 0
-145 -147 -149 -150 0
145 147 149 150 0
145 -147 -149 150 0
150 168 0
140 -142 -144 -145 -146 -147 -148 -150 -152 -154 155 -156 -158 -160 161 162 -164 -165 -166 -167 -168 0
136 149 -151 -152 0
-136 -149 151 152 0
136 -149 151 -152 0
-136 149 -151 152 0
-136 149 151 -152 0
-136 -149 -151 -152 0
136 149 151 152 0
136 -149 -151 152 0
152 168 0
140 -142 -144 -145 -146 -147 -148 -150 -152 -154 -155 -156 -158 -160 161 162 -164 -165 -166 167 -168 0
111 -153 -154 0
-11 -16 32 -48 92 -94 -96 -98 -100 -102 -104 -106 -108 -110 -112 -114 -116 -118 -120 -122 -124 -126 -128 -130 -132 -135 -136 -137 138 139 -140 0
134 -153 -154 0
-111 -134 -153 154 0
16 50 51 0
111 153 154 0
11 50 51 0
-111 -134 153 -154 0
16 -50 -51 0
134 153 154 0
154 168 0
140 -142 -144 -145 -146 -147 -148 -150 -152 -154 -155 -156 -158 -160 161 -162 -164 -165 166 -167 -168 0
-16 -27 155 -156 0
27 68 69 0
27 -68 -69 0
16 68 69 0
156 168 0
140 -142 -144 -145 -146 -147 -148 -150 -152 -154 155 -156 -158 -160 161 -162 -164 -165 166 167 -168 0
-11 -32 157 -158 0
32 70 71 0
32 -70 -71 0
11 70 71 0
158 168 0
137 140 -142 -144 145 -146 -148 -150 -152 -154 155 -156 -158 -160 161 -162 -164 165 -166 -167 -168 0
139 -159 -160 0
-139 -141 -159 160 0
-139 -141 159 -160 0
141 159 160 0
141 -159 -160 0
139 159 160 0
160 168 0
137 140 -142 -144 145 -146 -148 -150 -152 -154 -155 -156 -158 -160 161 -162 -164 165 -166 167 -168 0
-161 168 0
137 140 -142 -144 145 -146 -148 -150 -152 -154 -155 -156 -158 -160 161 162 -164 165 166 -167 -168 0
157 -162 163 -164 0
-157 162 -163 164 0
157 162 -163 -164 0
-157 -162 163 164 0
-157 162 163 -164 0
-157 -162 -163 -164 0
157 162 163 164 0
157 -162 -163 164 0
164 168 0
137 140 -142 -144 145 -146 -148 -150 -152 -154 155 -156 -158 -160 161 162 -164 165 166 167 -168 0
140 -142 143 -144 -146 147 -148 -150 -152 -154 -155 -156 -158 -160 161 -162 -164 165 -166 167 -168 0
137 140 -142 -144 -146 147 -148 -150 -152 -154 155 -156 -158 -160 161 -162 -164 165 -166 -167 -168 0
140 -142 143 -144 -146 147 -148 -150 -152 -154 155 -156 -158 -160 161 162 -164 165 166 167 -168 0
137 140 -142 -144 -146 147 -148 -150 -152 -154 -155 -156 -158 -160 161 162 -164 165 166 -167 -168 0
140 -142 143 -144 145 -146 -148 -150 -152 -154 155 -156 -158 -160 161 162 -164 165 166 167 -168 0
140 -142 143 -144 -146 147 -148 -150 -152 -154 155 -156 -158 -160 161 -162 -164 165 -166 -167 -168 0
137 140 -142 -144 -146 147 -148 -150 -152 -154 155 -156 -158 -160 161 162 -164 165 166 167 -168 0
140 -142 143 -144 145 -146 -148 -150 -152 -154 -155 -156 -158 -160 161 -162 -164 165 -166 167 -168 0
-140 168 0
140 -142 143 -144 -146 147 -148 -150 -152 -154 -155 -156 -158 -160 161 162 -164 165 166 -167 -168 0
137 140 -142 -144 -146 147 -148 -150 -152 -154 -155 -156 -158 -160 161 -162 -164 165 -166 167 -168 0
140 -142 143 -144 145 -146 -148 -150 -152 -154 -155 -156 -158 -160 161 162 -164 165 166 -167 -168 0
-151 -153 -169 170 0
149 153 169 170 0
-136 -149 -169 170 0
136 151 169 170 0
136 153 169 170 0
149 151 169 170 0
-88 -90 168 -170 -172 173 -174 -176 -178 179 -180 -182 0
32 84 85 0
32 -84 -85 0
27 84 85 0
84 90 168 -170 -171 -172 -173 -174 -176 -178 -180 -182 0
-162 -165 -173 174 0
163 165 173 174 0
-157 -163 -173 174 0
157 162 173 174 0
157 165 173 174 0
162 163 173 174 0
86 90 168 -170 -171 -172 -173 -174 -176 -178 -180 -182 0
-171 -173 175 176 0
-171 173 -175 176 0
171 173 175 176 0
171 -173 -175 176 0
84 88 168 -170 -171 -172 -173 -174 -176 -178 -180 -182 0
-175 -177 178 0
175 177 178 0
86 88 168 -170 -171 -172 -173 -174 -176 -178 -180 -182 0
-167 -169 -179 180 0
166 169 179 180 0
-155 -166 -179 180 0
155 167 179 180 0
155 169 179 180 0
166 167 179 180 0
-179 -181 182 0
179 181 182 0
-8 95 168 -170 -172 -174 -176 -178 -180 -182 0
8 -95 168 -170 -172 -174 -176 -178 -180 -182 0
24 -109 168 -170 -172 -174 -176 -178 -180 -182 0
-64 66 -151 -153 168 -170 -172 -174 -176 -178 -180 -182 0
64 -66 -151 -153 168 -170 -172 -174 -176 -178 -180 -182 0
-45 133 168 -170 -172 -174 -176 -178 -180 -182 0
-64 66 151 153 168 -170 -172 -174 -176 -178 -180 -182 0
45 -133 168 -170 -172 -174 -176 -178 -180 -182 0
-24 109 168 -170 -172 -174 -176 -178 -180 -182 0
-80 82 -167 168 -169 -170 -172 -174 -176 -178 -180 -182 0
64 66 -151 153 168 -170 -172 -174 -176 -178 -180 -182 0
-64 -66 -151 153 168 -170 -172 -174 -176 -178 -180 -182 0
80 -82 -167 168 -169 -170 -172 -174 -176 -178 -180 -182 0
64 -66 151 153 168 -170 -172 -174 -176 -178 -180 -182 0
-80 82 167 168 169 -170 -172 -174 -176 -178 -180 -182 0
-64 -66 151 -153 168 -170 -172 -174 -176 -178 -180 -182 0
64 66 151 -153 168 -170 -172 -174 -176 -178 -180 -182 0
-80 -82 -167 168 169 -170 -172 -174 -176 -178 -180 -182 0
80 82 167 168 -169 -170 -172 -174 -176 -178 -180 -182 0
80 82 -167 168 169 -170 -172 -174 -176 -178 -180 -182 0
-80 -82 167 168 -169 -170 -172 -174 -176 -178 -180 -182 0
-84 -86 168 -170 -172 173 -174 -176 -178 179 -180 -182 0
-88 -90 168 -170 171 -172 -174 175 -176 -178 -180 -182 0
80 -82 167 168 169 -170 -172 -174 -176 -178 -180 -182 0
-88 90 168 -170 -172 -174 -176 -178 -180 -182 183 0
86 90 168 -170 -172 -174 -175 -176 -178 -179 -180 -182 0
84 88 168 -170 -172 -174 -175 -176 -178 -179 -180 -182 0
-88 -90 168 -170 -172 173 -174 175 -176 -178 -180 -182 0
88 -90 168 -170 -172 -174 -176 -178 -180 -182 183 0
84 90 168 -170 -172 -174 -175 -176 -178 -179 -180 -182 0
-88 -90 168 -170 171 -172 -174 -176 -178 179 -180 -182 0
-84 -86 168 -170 -172 173 -174 175 -176 -178 -180 -182 0
88 90 168 -170 -172 -174 -176 -178 -180 -182 -183 0
86 88 168 -170 -172 -174 -175 -176 -178 -179 -180 -182 0
-88 -90 168 -170 -172 -174 -176 -178 -180 -182 -183 0
-84 -86 168 -170 171 -172 -174 175 -176 -178 -180 -182 0
-84 -86 168 -170 171 -172 -174 -176 -178 179 -180 -182 0
